-data: g10.mc
-node_num: 800
-set_a_count: 390
-set_b_count: 410
-current_cut_value: 1477.0
-current_solution: set_a: {0, 1, 4, 5, 6, 9, 12, 14, 16, 18, 21, 24, 25, 27, 28, 29, 35, 37, 40, 42, 49, 50, 52, 53, 57, 58, 63, 64, 66, 67, 70, 71, 72, 73, 75, 77, 80, 81, 84, 85, 89, 91, 93, 94, 95, 96, 98, 104, 105, 107, 109, 110, 111, 112, 113, 114, 115, 117, 119, 120, 125, 128, 129, 133, 137, 138, 141, 142, 144, 147, 149, 151, 155, 159, 160, 161, 165, 176, 177, 179, 183, 184, 187, 188, 191, 192, 199, 200, 202, 203, 204, 207, 208, 211, 212, 213, 214, 215, 218, 219, 221, 224, 225, 232, 233, 235, 240, 241, 247, 249, 250, 252, 254, 255, 256, 257, 258, 259, 262, 264, 266, 267, 268, 272, 273, 274, 276, 279, 280, 281, 282, 283, 284, 285, 286, 288, 289, 290, 292, 293, 294, 295, 296, 297, 298, 299, 300, 301, 305, 306, 308, 309, 310, 311, 312, 313, 316, 318, 319, 325, 329, 331, 332, 334, 335, 336, 338, 339, 341, 343, 344, 345, 347, 348, 349, 350, 351, 352, 353, 354, 359, 360, 362, 363, 364, 367, 368, 370, 371, 372, 374, 375, 378, 379, 383, 384, 387, 391, 392, 393, 394, 395, 396, 398, 400, 401, 402, 404, 405, 407, 409, 410, 412, 413, 416, 417, 419, 422, 425, 427, 431, 434, 438, 439, 442, 444, 446, 447, 450, 451, 452, 453, 454, 457, 459, 463, 464, 465, 467, 468, 471, 472, 473, 474, 476, 477, 480, 482, 485, 486, 487, 488, 490, 493, 494, 497, 498, 503, 504, 505, 512, 513, 516, 521, 522, 526, 528, 529, 530, 531, 532, 533, 537, 538, 539, 543, 544, 546, 547, 548, 549, 552, 555, 556, 558, 560, 564, 567, 568, 569, 573, 574, 575, 580, 581, 583, 587, 588, 589, 595, 599, 600, 606, 609, 611, 613, 615, 617, 618, 621, 624, 629, 630, 632, 633, 635, 637, 642, 643, 644, 647, 656, 657, 658, 659, 661, 663, 665, 666, 667, 668, 670, 673, 675, 677, 679, 680, 682, 686, 687, 688, 689, 690, 691, 692, 693, 695, 696, 698, 699, 700, 701, 704, 706, 710, 711, 720, 721, 728, 730, 733, 734, 735, 737, 738, 739, 743, 748, 750, 752, 753, 754, 759, 762, 765, 767, 768, 771, 772, 775, 778, 779, 782, 783, 784, 786, 788, 793, 795, 798}
set_b: {2, 3, 7, 8, 10, 11, 13, 15, 17, 19, 20, 22, 23, 26, 30, 31, 32, 33, 34, 36, 38, 39, 41, 43, 44, 45, 46, 47, 48, 51, 54, 55, 56, 59, 60, 61, 62, 65, 68, 69, 74, 76, 78, 79, 82, 83, 86, 87, 88, 90, 92, 97, 99, 100, 101, 102, 103, 106, 108, 116, 118, 121, 122, 123, 124, 126, 127, 130, 131, 132, 134, 135, 136, 139, 140, 143, 145, 146, 148, 150, 152, 153, 154, 156, 157, 158, 162, 163, 164, 166, 167, 168, 169, 170, 171, 172, 173, 174, 175, 178, 180, 181, 182, 185, 186, 189, 190, 193, 194, 195, 196, 197, 198, 201, 205, 206, 209, 210, 216, 217, 220, 222, 223, 226, 227, 228, 229, 230, 231, 234, 236, 237, 238, 239, 242, 243, 244, 245, 246, 248, 251, 253, 260, 261, 263, 265, 269, 270, 271, 275, 277, 278, 287, 291, 302, 303, 304, 307, 314, 315, 317, 320, 321, 322, 323, 324, 326, 327, 328, 330, 333, 337, 340, 342, 346, 355, 356, 357, 358, 361, 365, 366, 369, 373, 376, 377, 380, 381, 382, 385, 386, 388, 389, 390, 397, 399, 403, 406, 408, 411, 414, 415, 418, 420, 421, 423, 424, 426, 428, 429, 430, 432, 433, 435, 436, 437, 440, 441, 443, 445, 448, 449, 455, 456, 458, 460, 461, 462, 466, 469, 470, 475, 478, 479, 481, 483, 484, 489, 491, 492, 495, 496, 499, 500, 501, 502, 506, 507, 508, 509, 510, 511, 514, 515, 517, 518, 519, 520, 523, 524, 525, 527, 534, 535, 536, 540, 541, 542, 545, 550, 551, 553, 554, 557, 559, 561, 562, 563, 565, 566, 570, 571, 572, 576, 577, 578, 579, 582, 584, 585, 586, 590, 591, 592, 593, 594, 596, 597, 598, 601, 602, 603, 604, 605, 607, 608, 610, 612, 614, 616, 619, 620, 622, 623, 625, 626, 627, 628, 631, 634, 636, 638, 639, 640, 641, 645, 646, 648, 649, 650, 651, 652, 653, 654, 655, 660, 662, 664, 669, 671, 672, 674, 676, 678, 681, 683, 684, 685, 694, 697, 702, 703, 705, 707, 708, 709, 712, 713, 714, 715, 716, 717, 718, 719, 722, 723, 724, 725, 726, 727, 729, 731, 732, 736, 740, 741, 742, 744, 745, 746, 747, 749, 751, 755, 756, 757, 758, 760, 761, 763, 764, 766, 769, 770, 773, 774, 776, 777, 780, 781, 785, 787, 789, 790, 791, 792, 794, 796, 797, 799}
